TOUR_SECTION
58
177
195
176
10
165
114
198
22
46
59
172
140
28
109
53
127
150
63
193
16
20
50
120
12
64
62
85
157
100
186
57
142
97
153
73
105
131
93
158
122
83
87
141
33
40
9
52
163
81
126
26
41
36
75
55
123
108
101
98
65
39
99
67
118
168
34
29
164
77
116
161
48
188
76
162
106
45
154
30
179
82
136
27
137
147
25
170
24
7
102
191
19
71
200
173
192
190
15
94
11
47
72
129
13
189
69
21
38
121
152
90
112
134
113
180
174
135
91
185
103
166
88
44
14
4
96
1
31
35
111
2
5
86
95
110
17
18
74
133
60
125
78
117
151
184
199
197
43
115
89
175
156
139
80
187
138
194
119
167
107
54
23
183
42
104
159
84
37
171
146
182
32
145
132
181
124
169
160
92
128
6
148
70
56
61
51
49
79
66
3
68
130
149
144
143
178
196
155
8
-1
EOF